(declare-const term_to_project_onto1_integralized Int)
(declare-const term_to_project_onto_integralized Int)
(declare-const term_to_project_onto0_integralized Int)
(assert (exists
         ((uninterp?1_integralized?1 Int) (uninterp?2?2 Int)
            (uninterp?3?3 Int) (|s'?4_integralized?4| Int)
            (|x'?5_integralized?5| Int) (|r'?6?6| Int)
            (x?7_integralized?7 Int) (s?8_integralized?8 Int) (r?9?9 Int)
            (a?10_integralized?10 Int))
         (and (<= (- x?7_integralized?7) 0) (< (- s?8_integralized?8) 0)
                (<= (+ (- r?9?9) 1) 0) (<= (- a?10_integralized?10) 0)
                (= (+ (* -12 uninterp?3?3) (* 4 s?8_integralized?8) -1) 0)
                (= (+ (* -4 a?10_integralized?10) (* 4 uninterp?2?2)
                        (* -6 uninterp?3?3) (* 3 r?9?9)
                        (* 4 x?7_integralized?7) -1) 0)
                (= (+ (* -24 a?10_integralized?10) (* 16 r?9?9)
                        (* 8 uninterp?1_integralized?1)
                        (* -12 s?8_integralized?8) (* 24 x?7_integralized?7)
                        -3) 0)
                (< (+ s?8_integralized?8 (- x?7_integralized?7)) 0)
                (= (+ |s'?4_integralized?4| (* -6 r?9?9)
                        (- s?8_integralized?8) -3) 0)
                (= (+ |x'?5_integralized?5| s?8_integralized?8
                        (- x?7_integralized?7)) 0)
                (= (+ |r'?6?6| (- r?9?9) -1) 0)
                (<= (+ (/ 1 4) (- uninterp?1_integralized?1)) 0)
                (<= (+ s?8_integralized?8 (- uninterp?1_integralized?1)) 0)
                (<= (+ (* (/ 1 4) r?9?9) (- uninterp?1_integralized?1)) 0)
                (<= (+ 1 (- uninterp?2?2)) 0)
                (<= (+ r?9?9 (- uninterp?2?2)) 0)
                (<= (+ r?9?9 (- uninterp?2?2)) 0)
                (<= (+ uninterp?3?3 (- uninterp?2?2)) 0)
                (<= (+ r?9?9 (- uninterp?2?2)) 0)
                (<= (+ 1 (- uninterp?3?3)) 0)
                (<= (+ r?9?9 (- uninterp?3?3)) 0)
                (<= (+ r?9?9 (- uninterp?3?3)) 0)
                (= (+ term_to_project_onto1_integralized
                        (- (+ |r'?6?6| (- r?9?9)))) 0)
                (= (+ term_to_project_onto0_integralized
                        (- (+ |x'?5_integralized?5| (- x?7_integralized?7)))) 0)
                (= (+ term_to_project_onto_integralized
                        (- (+ |s'?4_integralized?4| (- s?8_integralized?8)))) 0))))
(check-sat)